(set-logic QF_FPABV)
(declare-fun b14 () (_ FP 8 24))
(declare-fun b17 () (_ FP 8 24))
(declare-fun b37 () (_ FP 8 24))
(declare-fun b10 () (_ FP 8 24))
(declare-fun b11 () (_ FP 8 24))
(declare-fun b20 () (_ FP 8 24))
(declare-fun b34 () (_ FP 8 24))
(define-fun .3 () RoundingMode roundNearestTiesToEven)
(define-fun .9 () (_ FP 8 24) b34)
(define-fun .10 () (_ FP 8 24) b11)
(define-fun .11 () Bool (< .9 .10))
(define-fun .12 () (_ FP 8 24) b10)
(define-fun .13 () (_ FP 8 24) (* .3 .10 .12))
(define-fun .14 () (_ FP 8 24) b14)
(define-fun .15 () (_ FP 8 24) (* .3 .13 .14))
(define-fun .16 () (_ FP 8 24) b17)
(define-fun .17 () (_ FP 8 24) (* .3 .15 .16))
(define-fun .18 () (_ FP 8 24) b20)
(define-fun .19 () Bool (< .17 .18))
(define-fun .20 () Bool (and .11 .19))
(define-fun .21 () (_ FP 8 24) b37)
(define-fun .22 () Bool (< .10 .21))
(define-fun .23 () Bool (and .20 .22))
(define-fun .24 () Bool (< .9 .14))
(define-fun .25 () Bool (and .23 .24))
(define-fun .26 () Bool (< .14 .21))
(define-fun .27 () Bool (and .25 .26))
(define-fun .28 () Bool (< .9 .16))
(define-fun .29 () Bool (and .27 .28))
(define-fun .30 () Bool (< .16 .21))
(define-fun .31 () Bool (and .29 .30))
(assert .31)
(check-sat)
